c input_v4/commander/cnf_ALO_v4/10x10_120.cnf
'p cnf
cnf 1240
s SATISFIABLE
c process-time: 0.00 seconds
-----
c input_v4/commander/cnf_ALO_v4/10x10_121.cnf
'p cnf
cnf 1240
s SATISFIABLE
c process-time: 0.01 seconds
-----
c input_v4/commander/cnf_ALO_v4/10x10_122.cnf
'p cnf
cnf 1240
s SATISFIABLE
c process-time: 0.01 seconds
-----
c input_v4/commander/cnf_ALO_v4/10x10_123.cnf
'p cnf
cnf 1334
s SATISFIABLE
c process-time: 0.00 seconds
-----
c input_v4/commander/cnf_ALO_v4/10x10_124.cnf
'p cnf
cnf 1240
s SATISFIABLE
c process-time: 0.00 seconds
-----
c input_v4/commander/cnf_ALO_v4/10x10_130.cnf
'p cnf
cnf 1240
s SATISFIABLE
c process-time: 0.00 seconds
-----
c input_v4/commander/cnf_ALO_v4/10x10_131.cnf
'p cnf
cnf 968
s SATISFIABLE
c process-time: 0.00 seconds
-----
c input_v4/commander/cnf_ALO_v4/10x10_132.cnf
'p cnf
cnf 1146
s SATISFIABLE
c process-time: 0.00 seconds
-----
c input_v4/commander/cnf_ALO_v4/10x10_133.cnf
'p cnf
cnf 1334
s SATISFIABLE
c process-time: 0.00 seconds
-----
c input_v4/commander/cnf_ALO_v4/10x10_134.cnf
'p cnf
cnf 968
s SATISFIABLE
c process-time: 0.00 seconds
-----
c input_v4/commander/cnf_ALO_v4/10x10_135.cnf
'p cnf
cnf 1146
s SATISFIABLE
c process-time: 0.00 seconds
-----
c input_v4/commander/cnf_ALO_v4/10x10_136.cnf
'p cnf
cnf 1240
s SATISFIABLE
c process-time: 0.00 seconds
-----
c input_v4/commander/cnf_ALO_v4/10x10_137.cnf
'p cnf
cnf 1240
s SATISFIABLE
c process-time: 0.00 seconds
-----
c input_v4/commander/cnf_ALO_v4/10x10_138.cnf
'p cnf
cnf 1334
s SATISFIABLE
c process-time: 0.00 seconds
-----
c input_v4/commander/cnf_ALO_v4/10x10_139.cnf
'p cnf
cnf 1146
s SATISFIABLE
c process-time: 0.00 seconds
-----
c input_v4/commander/cnf_ALO_v4/10x10_140.cnf
'p cnf
cnf 1334
s SATISFIABLE
c process-time: 0.00 seconds
-----
c input_v4/commander/cnf_ALO_v4/10x10_141.cnf
'p cnf
cnf 1240
s SATISFIABLE
c process-time: 0.00 seconds
-----
c input_v4/commander/cnf_ALO_v4/10x10_142.cnf
'p cnf
cnf 1240
s SATISFIABLE
c process-time: 0.00 seconds
-----
c input_v4/commander/cnf_ALO_v4/10x10_143.cnf
'p cnf
cnf 1146
s SATISFIABLE
c process-time: 0.00 seconds
-----
c input_v4/commander/cnf_ALO_v4/10x10_144.cnf
'p cnf
cnf 1334
s SATISFIABLE
c process-time: 0.00 seconds
-----
c input_v4/commander/cnf_ALO_v4/10x10_145.cnf
'p cnf
cnf 1334
s SATISFIABLE
c process-time: 0.00 seconds
-----
c input_v4/commander/cnf_ALO_v4/10x15_387.cnf
'p cnf
cnf 1890
s SATISFIABLE
c process-time: 0.01 seconds
-----
c input_v4/commander/cnf_ALO_v4/10x15_388.cnf
'p cnf
cnf 1746
s SATISFIABLE
c process-time: 0.00 seconds
-----
c input_v4/commander/cnf_ALO_v4/10x15_389.cnf
'p cnf
cnf 1468
s SATISFIABLE
c process-time: 0.01 seconds
-----
c input_v4/commander/cnf_ALO_v4/10x15_390.cnf
'p cnf
cnf 1890
s SATISFIABLE
c process-time: 0.02 seconds
-----
c input_v4/commander/cnf_ALO_v4/10x15_396.cnf
'p cnf
cnf 1468
s SATISFIABLE
c process-time: 0.02 seconds
-----
c input_v4/commander/cnf_ALO_v4/10x15_397.cnf
'p cnf
cnf 1746
s SATISFIABLE
c process-time: 0.01 seconds
-----
c input_v4/commander/cnf_ALO_v4/10x15_398.cnf
'p cnf
cnf 1468
s SATISFIABLE
c process-time: 0.01 seconds
-----
c input_v4/commander/cnf_ALO_v4/10x15_399.cnf
'p cnf
cnf 1746
s SATISFIABLE
c process-time: 0.00 seconds
-----
c input_v4/commander/cnf_ALO_v4/10x15_400.cnf
'p cnf
cnf 1468
s SATISFIABLE
c process-time: 0.01 seconds
-----
c input_v4/commander/cnf_ALO_v4/10x18_186.cnf
'p cnf
cnf 2802
s SATISFIABLE
c process-time: 0.02 seconds
-----
c input_v4/commander/cnf_ALO_v4/10x18_187.cnf
'p cnf
cnf 2280
s SATISFIABLE
c process-time: 0.03 seconds
-----
c input_v4/commander/cnf_ALO_v4/10x18_198.cnf
'p cnf
cnf 3472
s SATISFIABLE
c process-time: 0.01 seconds
-----
c input_v4/commander/cnf_ALO_v4/10x18_199.cnf
'p cnf
cnf 2802
s SATISFIABLE
c process-time: 0.01 seconds
-----
c input_v4/commander/cnf_ALO_v4/10x18_200.cnf
'p cnf
cnf 2628
s SATISFIABLE
c process-time: 0.09 seconds
-----
c input_v4/commander/cnf_ALO_v4/10x18_208.cnf
'p cnf
cnf 2976
s SATISFIABLE
c process-time: 0.01 seconds
-----
c input_v4/commander/cnf_ALO_v4/10x18_209.cnf
'p cnf
cnf 2628
s SATISFIABLE
c process-time: 0.01 seconds
-----
c input_v4/commander/cnf_ALO_v4/10x18_414.cnf
'p cnf
cnf 3644
s SATISFIABLE
c process-time: 0.02 seconds
-----
c input_v4/commander/cnf_ALO_v4/10x18_415.cnf
'p cnf
cnf 3472
s SATISFIABLE
c process-time: 0.01 seconds
-----
c input_v4/commander/cnf_ALO_v4/10x18_416.cnf
'p cnf
cnf 2280
s SATISFIABLE
c process-time: 0.02 seconds
-----
c input_v4/commander/cnf_ALO_v4/10x18_417.cnf
'p cnf
cnf 2628
s SATISFIABLE
c process-time: 0.09 seconds
-----
c input_v4/commander/cnf_ALO_v4/11x11_120.cnf
'p cnf
cnf 1743
s SATISFIABLE
c process-time: 0.00 seconds
-----
c input_v4/commander/cnf_ALO_v4/11x11_121.cnf
'p cnf
cnf 1398
s SATISFIABLE
c process-time: 0.00 seconds
-----
c input_v4/commander/cnf_ALO_v4/11x11_122.cnf
'p cnf
cnf 1178
s SATISFIABLE
c process-time: 0.00 seconds
-----
c input_v4/commander/cnf_ALO_v4/11x11_123.cnf
'p cnf
cnf 1743
s SATISFIABLE
c process-time: 0.01 seconds
-----
c input_v4/commander/cnf_ALO_v4/11x11_124.cnf
'p cnf
cnf 1743
s SATISFIABLE
c process-time: 0.00 seconds
-----
c input_v4/commander/cnf_ALO_v4/11x11_130.cnf
'p cnf
cnf 1513
s SATISFIABLE
c process-time: 0.00 seconds
-----
c input_v4/commander/cnf_ALO_v4/11x11_131.cnf
'p cnf
cnf 1743
s SATISFIABLE
c process-time: 0.00 seconds
-----
c input_v4/commander/cnf_ALO_v4/11x11_132.cnf
'p cnf
cnf 1628
s SATISFIABLE
c process-time: 0.01 seconds
-----
c input_v4/commander/cnf_ALO_v4/11x11_133.cnf
'p cnf
cnf 1513
s SATISFIABLE
c process-time: 0.00 seconds
-----
c input_v4/commander/cnf_ALO_v4/11x11_134.cnf
'p cnf
cnf 1743
s SATISFIABLE
c process-time: 0.00 seconds
-----
c input_v4/commander/cnf_ALO_v4/11x11_135.cnf
'p cnf
cnf 1743
s SATISFIABLE
c process-time: 0.00 seconds
-----
c input_v4/commander/cnf_ALO_v4/11x11_136.cnf
'p cnf
cnf 1178
s SATISFIABLE
c process-time: 0.00 seconds
-----
c input_v4/commander/cnf_ALO_v4/11x11_137.cnf
'p cnf
cnf 1743
s SATISFIABLE
c process-time: 0.00 seconds
-----
c input_v4/commander/cnf_ALO_v4/11x11_138.cnf
'p cnf
cnf 1743
s SATISFIABLE
c process-time: 0.00 seconds
-----
c input_v4/commander/cnf_ALO_v4/11x11_139.cnf
'p cnf
cnf 1398
s SATISFIABLE
c process-time: 0.00 seconds
-----
c input_v4/commander/cnf_ALO_v4/11x11_140.cnf
'p cnf
cnf 1743
s SATISFIABLE
c process-time: 0.01 seconds
-----
c input_v4/commander/cnf_ALO_v4/11x11_141.cnf
'p cnf
cnf 1398
s SATISFIABLE
c process-time: 0.00 seconds
-----
c input_v4/commander/cnf_ALO_v4/11x11_142.cnf
'p cnf
cnf 1513
s SATISFIABLE
c process-time: 0.01 seconds
-----
c input_v4/commander/cnf_ALO_v4/11x11_143.cnf
'p cnf
cnf 1398
s SATISFIABLE
c process-time: 0.00 seconds
-----
c input_v4/commander/cnf_ALO_v4/11x11_144.cnf
'p cnf
cnf 1513
s SATISFIABLE
c process-time: 0.01 seconds
-----
c input_v4/commander/cnf_ALO_v4/11x11_145.cnf
'p cnf
cnf 1513
s SATISFIABLE
c process-time: 0.00 seconds
-----
c input_v4/commander/cnf_ALO_v4/12x12_120.cnf
'p cnf
cnf 2364
s SATISFIABLE
c process-time: 0.01 seconds
-----
c input_v4/commander/cnf_ALO_v4/12x12_121.cnf
'p cnf
cnf 1812
s SATISFIABLE
c process-time: 0.01 seconds
-----
c input_v4/commander/cnf_ALO_v4/12x12_122.cnf
'p cnf
cnf 2226
s SATISFIABLE
c process-time: 0.00 seconds
-----
c input_v4/commander/cnf_ALO_v4/12x12_123.cnf
'p cnf
cnf 1950
s SATISFIABLE
c process-time: 0.00 seconds
-----
c input_v4/commander/cnf_ALO_v4/12x12_124.cnf
'p cnf
cnf 2226
s SATISFIABLE
c process-time: 0.01 seconds
-----
c input_v4/commander/cnf_ALO_v4/12x12_130.cnf
'p cnf
cnf 2226
s SATISFIABLE
c process-time: 0.01 seconds
-----
c input_v4/commander/cnf_ALO_v4/12x12_131.cnf
'p cnf
cnf 1812
s SATISFIABLE
c process-time: 0.01 seconds
-----
c input_v4/commander/cnf_ALO_v4/12x12_132.cnf
'p cnf
cnf 2226
s SATISFIABLE
c process-time: 0.01 seconds
-----
c input_v4/commander/cnf_ALO_v4/12x12_133.cnf
'p cnf
cnf 2226
s SATISFIABLE
c process-time: 0.00 seconds
-----
c input_v4/commander/cnf_ALO_v4/12x12_134.cnf
'p cnf
cnf 2088
s SATISFIABLE
c process-time: 0.00 seconds
-----
c input_v4/commander/cnf_ALO_v4/12x12_135.cnf
'p cnf
cnf 1950
s SATISFIABLE
c process-time: 0.01 seconds
-----
c input_v4/commander/cnf_ALO_v4/12x12_136.cnf
'p cnf
cnf 2088
s SATISFIABLE
c process-time: 0.01 seconds
-----
c input_v4/commander/cnf_ALO_v4/12x12_137.cnf
'p cnf
cnf 1950
s SATISFIABLE
c process-time: 0.01 seconds
-----
c input_v4/commander/cnf_ALO_v4/12x12_138.cnf
'p cnf
cnf 1950
s SATISFIABLE
c process-time: 0.00 seconds
-----
c input_v4/commander/cnf_ALO_v4/12x12_139.cnf
'p cnf
cnf 2088
s SATISFIABLE
c process-time: 0.01 seconds
-----
c input_v4/commander/cnf_ALO_v4/12x12_140.cnf
'p cnf
cnf 1950
s SATISFIABLE
c process-time: 0.00 seconds
-----
c input_v4/commander/cnf_ALO_v4/12x12_141.cnf
'p cnf
cnf 1950
s SATISFIABLE
c process-time: 0.00 seconds
-----
c input_v4/commander/cnf_ALO_v4/12x12_142.cnf
'p cnf
cnf 1674
s SATISFIABLE
c process-time: 0.00 seconds
-----
c input_v4/commander/cnf_ALO_v4/12x12_143.cnf
'p cnf
cnf 2364
s SATISFIABLE
c process-time: 0.01 seconds
-----
c input_v4/commander/cnf_ALO_v4/12x12_144.cnf
'p cnf
cnf 1812
s SATISFIABLE
c process-time: 0.00 seconds
-----
c input_v4/commander/cnf_ALO_v4/12x12_145.cnf
'p cnf
cnf 1950
s SATISFIABLE
c process-time: 0.01 seconds
-----
c input_v4/commander/cnf_ALO_v4/12x15_39.cnf
'p cnf
cnf 3150
s SATISFIABLE
c process-time: 0.01 seconds
-----
c input_v4/commander/cnf_ALO_v4/12x15_43.cnf
'p cnf
cnf 2802
s SATISFIABLE
c process-time: 0.01 seconds
-----
c input_v4/commander/cnf_ALO_v4/12x15_45.cnf
'p cnf
cnf 2280
s SATISFIABLE
c process-time: 0.01 seconds
-----
c input_v4/commander/cnf_ALO_v4/12x15_46.cnf
'p cnf
cnf 2454
s SATISFIABLE
c process-time: 0.01 seconds
-----
c input_v4/commander/cnf_ALO_v4/12x23_210.cnf
'p cnf
cnf 7536
s SATISFIABLE
c process-time: 0.06 seconds
-----
c input_v4/commander/cnf_ALO_v4/13x13_120.cnf
'p cnf
cnf 2626
s SATISFIABLE
c process-time: 0.01 seconds
-----
c input_v4/commander/cnf_ALO_v4/13x13_121.cnf
'p cnf
cnf 2463
s SATISFIABLE
c process-time: 0.01 seconds
-----
c input_v4/commander/cnf_ALO_v4/13x13_122.cnf
'p cnf
cnf 2137
s SATISFIABLE
c process-time: 0.01 seconds
-----
c input_v4/commander/cnf_ALO_v4/13x13_123.cnf
'p cnf
cnf 2789
s SATISFIABLE
c process-time: 0.01 seconds
-----
c input_v4/commander/cnf_ALO_v4/13x13_124.cnf
'p cnf
cnf 2626
s SATISFIABLE
c process-time: 0.01 seconds
-----
c input_v4/commander/cnf_ALO_v4/13x13_130.cnf
'p cnf
cnf 2626
s SATISFIABLE
c process-time: 0.01 seconds
-----
c input_v4/commander/cnf_ALO_v4/13x13_131.cnf
'p cnf
cnf 2463
s SATISFIABLE
c process-time: 0.01 seconds
-----
c input_v4/commander/cnf_ALO_v4/13x13_132.cnf
'p cnf
cnf 2789
s SATISFIABLE
c process-time: 0.01 seconds
-----
c input_v4/commander/cnf_ALO_v4/13x13_133.cnf
'p cnf
cnf 2463
s SATISFIABLE
c process-time: 0.01 seconds
-----
c input_v4/commander/cnf_ALO_v4/13x13_134.cnf
'p cnf
cnf 2300
s SATISFIABLE
c process-time: 0.06 seconds
-----
c input_v4/commander/cnf_ALO_v4/13x13_135.cnf
'p cnf
cnf 2463
s SATISFIABLE
c process-time: 0.01 seconds
-----
c input_v4/commander/cnf_ALO_v4/13x13_136.cnf
'p cnf
cnf 2626
s SATISFIABLE
c process-time: 0.01 seconds
-----
c input_v4/commander/cnf_ALO_v4/13x13_137.cnf
'p cnf
cnf 2626
s SATISFIABLE
c process-time: 0.01 seconds
-----
c input_v4/commander/cnf_ALO_v4/13x13_138.cnf
'p cnf
cnf 2789
s SATISFIABLE
c process-time: 0.01 seconds
-----
c input_v4/commander/cnf_ALO_v4/13x13_139.cnf
'p cnf
cnf 2952
s SATISFIABLE
c process-time: 0.01 seconds
-----
c input_v4/commander/cnf_ALO_v4/13x13_140.cnf
'p cnf
cnf 2463
s SATISFIABLE
c process-time: 0.01 seconds
-----
c input_v4/commander/cnf_ALO_v4/13x13_141.cnf
'p cnf
cnf 2300
s SATISFIABLE
c process-time: 0.00 seconds
-----
c input_v4/commander/cnf_ALO_v4/13x13_142.cnf
'p cnf
cnf 2300
s SATISFIABLE
c process-time: 0.08 seconds
-----
c input_v4/commander/cnf_ALO_v4/13x13_143.cnf
'p cnf
cnf 2300
s SATISFIABLE
c process-time: 0.06 seconds
-----
c input_v4/commander/cnf_ALO_v4/13x13_144.cnf
'p cnf
cnf 2952
s SATISFIABLE
c process-time: 0.01 seconds
-----
c input_v4/commander/cnf_ALO_v4/13x13_145.cnf
'p cnf
cnf 2789
s SATISFIABLE
c process-time: 0.01 seconds
-----
c input_v4/commander/cnf_ALO_v4/14x14_120.cnf
'p cnf
cnf 3248
s SATISFIABLE
c process-time: 0.01 seconds
-----
c input_v4/commander/cnf_ALO_v4/14x14_121.cnf
'p cnf
cnf 3438
s SATISFIABLE
c process-time: 0.02 seconds
-----
c input_v4/commander/cnf_ALO_v4/14x14_122.cnf
'p cnf
cnf 3438
s SATISFIABLE
c process-time: 0.06 seconds
-----
c input_v4/commander/cnf_ALO_v4/14x14_123.cnf
'p cnf
cnf 3058
s SATISFIABLE
c process-time: 0.02 seconds
-----
c input_v4/commander/cnf_ALO_v4/14x14_124.cnf
'p cnf
cnf 3248
s SATISFIABLE
c process-time: 0.01 seconds
-----
c input_v4/commander/cnf_ALO_v4/14x14_130.cnf
'p cnf
cnf 3058
s SATISFIABLE
c process-time: 0.01 seconds
-----
c input_v4/commander/cnf_ALO_v4/14x14_131.cnf
'p cnf
cnf 3438
s SATISFIABLE
c process-time: 0.01 seconds
-----
c input_v4/commander/cnf_ALO_v4/14x14_132.cnf
'p cnf
cnf 3792
s SATISFIABLE
c process-time: 0.02 seconds
-----
c input_v4/commander/cnf_ALO_v4/14x14_133.cnf
'p cnf
cnf 3792
s SATISFIABLE
c process-time: 0.01 seconds
-----
c input_v4/commander/cnf_ALO_v4/14x14_134.cnf
'p cnf
cnf 3438
s SATISFIABLE
c process-time: 0.02 seconds
-----
c input_v4/commander/cnf_ALO_v4/14x14_135.cnf
'p cnf
cnf 2868
s SATISFIABLE
c process-time: 0.01 seconds
-----
c input_v4/commander/cnf_ALO_v4/14x14_136.cnf
'p cnf
cnf 2868
s SATISFIABLE
c process-time: 0.03 seconds
-----
c input_v4/commander/cnf_ALO_v4/14x14_137.cnf
'p cnf
cnf 3438
s SATISFIABLE
c process-time: 0.02 seconds
-----
c input_v4/commander/cnf_ALO_v4/14x14_138.cnf
'p cnf
cnf 3438
s SATISFIABLE
c process-time: 0.06 seconds
-----
c input_v4/commander/cnf_ALO_v4/14x14_139.cnf
'p cnf
cnf 3248
s SATISFIABLE
c process-time: 0.01 seconds
-----
c input_v4/commander/cnf_ALO_v4/14x14_140.cnf
'p cnf
cnf 3792
s SATISFIABLE
c process-time: 0.01 seconds
-----
c input_v4/commander/cnf_ALO_v4/14x14_141.cnf
'p cnf
cnf 3792
s SATISFIABLE
c process-time: 0.02 seconds
-----
c input_v4/commander/cnf_ALO_v4/14x14_142.cnf
'p cnf
cnf 3438
s SATISFIABLE
c process-time: 0.01 seconds
-----
c input_v4/commander/cnf_ALO_v4/14x14_143.cnf
'p cnf
cnf 3438
s SATISFIABLE
c process-time: 0.01 seconds
-----
c input_v4/commander/cnf_ALO_v4/14x14_144.cnf
'p cnf
cnf 2868
s SATISFIABLE
c process-time: 0.03 seconds
-----
c input_v4/commander/cnf_ALO_v4/14x14_145.cnf
'p cnf
cnf 3792
s SATISFIABLE
c process-time: 0.02 seconds
-----
c input_v4/commander/cnf_ALO_v4/14x24_105.cnf
'p cnf
cnf 8560
s SATISFIABLE
c process-time: 0.13 seconds
-----
c input_v4/commander/cnf_ALO_v4/14x24_110.cnf
'p cnf
cnf 7904
s SATISFIABLE
c process-time: 1s 0.73 seconds
-----
c input_v4/commander/cnf_ALO_v4/14x24_113.cnf
'p cnf
cnf 9216
s SATISFIABLE
c process-time: 0.16 seconds
-----
c input_v4/commander/cnf_ALO_v4/14x24_117.cnf
'p cnf
cnf 7576
s SATISFIABLE
c process-time: 0.34 seconds
-----
c input_v4/commander/cnf_ALO_v4/14x24_129.cnf
'p cnf
cnf 7904
s SATISFIABLE
c process-time: 0.45 seconds
-----
c input_v4/commander/cnf_ALO_v4/14x24_139.cnf
'p cnf
cnf 7904
s SATISFIABLE
c process-time: 0.09 seconds
-----
c input_v4/commander/cnf_ALO_v4/14x24_147.cnf
'p cnf
cnf 8232
s SATISFIABLE
c process-time: 0.31 seconds
-----
c input_v4/commander/cnf_ALO_v4/14x24_148.cnf
'p cnf
cnf 5958
s SATISFIABLE
c process-time: 0.20 seconds
-----
c input_v4/commander/cnf_ALO_v4/14x24_157.cnf
'p cnf
cnf 6592
s SATISFIABLE
c process-time: 0.05 seconds
-----
c input_v4/commander/cnf_ALO_v4/14x24_158.cnf
'p cnf
cnf 5298
s SATISFIABLE
c process-time: 1s 0.95 seconds
-----
c input_v4/commander/cnf_ALO_v4/14x24_169.cnf
'p cnf
cnf 5958
s SATISFIABLE
c process-time: 1s 0.78 seconds
-----
c input_v4/commander/cnf_ALO_v4/14x24_179.cnf
'p cnf
cnf 5298
s SATISFIABLE
c process-time: 4s 4.25 seconds
-----
c input_v4/commander/cnf_ALO_v4/14x24_188.cnf
'p cnf
cnf 8560
s SATISFIABLE
c process-time: 0.16 seconds
-----
c input_v4/commander/cnf_ALO_v4/14x24_189.cnf
'p cnf
cnf 10156
s SATISFIABLE
c process-time: 0.30 seconds
-----
c input_v4/commander/cnf_ALO_v4/14x24_190.cnf
'p cnf
cnf 5298
s SATISFIABLE
c process-time: 52s 51.56 seconds
-----
c input_v4/commander/cnf_ALO_v4/14x24_199.cnf
'p cnf
cnf 4968
s SATISFIABLE
c process-time: 3s 2.75 seconds
-----
c input_v4/commander/cnf_ALO_v4/14x24_200.cnf
'p cnf
cnf 5628
s SATISFIABLE
c process-time: 0.37 seconds
-----
c input_v4/commander/cnf_ALO_v4/14x24_208.cnf
'p cnf
cnf 7904
s SATISFIABLE
c process-time: 0.11 seconds
-----
c input_v4/commander/cnf_ALO_v4/14x24_209.cnf
'p cnf
cnf 5628
s SATISFIABLE
c process-time: 0.34 seconds
-----
c input_v4/commander/cnf_ALO_v4/14x24_218.cnf
'p cnf
cnf 7904
s SATISFIABLE
c process-time: 0.18 seconds
-----
c input_v4/commander/cnf_ALO_v4/14x24_219.cnf
'p cnf
cnf 5958
s SATISFIABLE
c process-time: 1s 0.89 seconds
-----
c input_v4/commander/cnf_ALO_v4/14x24_418.cnf
'p cnf
cnf 7248
s SATISFIABLE
c process-time: 0.11 seconds
-----
c input_v4/commander/cnf_ALO_v4/14x24_419.cnf
'p cnf
cnf 9216
s SATISFIABLE
c process-time: 0.13 seconds
-----
c input_v4/commander/cnf_ALO_v4/14x24_420.cnf
'p cnf
cnf 5628
s SATISFIABLE
c process-time: 6s 6.03 seconds
-----
c input_v4/commander/cnf_ALO_v4/15x15_120.cnf
'p cnf
cnf 4372
s SATISFIABLE
c process-time: 0.07 seconds
-----
c input_v4/commander/cnf_ALO_v4/15x15_121.cnf
'p cnf
cnf 3522
s SATISFIABLE
c process-time: 0.01 seconds
-----
c input_v4/commander/cnf_ALO_v4/15x15_122.cnf
'p cnf
cnf 3960
s SATISFIABLE
c process-time: 0.01 seconds
-----
c input_v4/commander/cnf_ALO_v4/15x15_123.cnf
'p cnf
cnf 4372
s SATISFIABLE
c process-time: 0.10 seconds
-----
c input_v4/commander/cnf_ALO_v4/15x15_124.cnf
'p cnf
cnf 4372
s SATISFIABLE
c process-time: 0.03 seconds
-----
c input_v4/commander/cnf_ALO_v4/15x15_130.cnf
'p cnf
cnf 3960
s SATISFIABLE
c process-time: 0.01 seconds
-----
c input_v4/commander/cnf_ALO_v4/15x15_131.cnf
'p cnf
cnf 4372
s SATISFIABLE
c process-time: 0.02 seconds
-----
c input_v4/commander/cnf_ALO_v4/15x15_132.cnf
'p cnf
cnf 4372
s SATISFIABLE
c process-time: 0.02 seconds
-----
c input_v4/commander/cnf_ALO_v4/15x15_133.cnf
'p cnf
cnf 4372
s SATISFIABLE
c process-time: 0.07 seconds
-----
c input_v4/commander/cnf_ALO_v4/15x15_134.cnf
'p cnf
cnf 3741
s SATISFIABLE
c process-time: 0.07 seconds
-----
c input_v4/commander/cnf_ALO_v4/15x15_135.cnf
'p cnf
cnf 4372
s SATISFIABLE
c process-time: 0.01 seconds
-----
c input_v4/commander/cnf_ALO_v4/15x15_136.cnf
'p cnf
cnf 4372
s SATISFIABLE
c process-time: 0.02 seconds
-----
c input_v4/commander/cnf_ALO_v4/15x15_137.cnf
'p cnf
cnf 4372
s SATISFIABLE
c process-time: 0.08 seconds
-----
c input_v4/commander/cnf_ALO_v4/15x15_138.cnf
'p cnf
cnf 4372
s SATISFIABLE
c process-time: 0.02 seconds
-----
c input_v4/commander/cnf_ALO_v4/15x15_139.cnf
'p cnf
cnf 3960
s SATISFIABLE
c process-time: 0.15 seconds
-----
c input_v4/commander/cnf_ALO_v4/15x15_140.cnf
'p cnf
cnf 4372
s SATISFIABLE
c process-time: 0.01 seconds
-----
c input_v4/commander/cnf_ALO_v4/15x15_141.cnf
'p cnf
cnf 4372
s SATISFIABLE
c process-time: 0.03 seconds
-----
c input_v4/commander/cnf_ALO_v4/15x15_142.cnf
'p cnf
cnf 4372
s SATISFIABLE
c process-time: 0.01 seconds
-----
c input_v4/commander/cnf_ALO_v4/15x15_143.cnf
'p cnf
cnf 4372
s SATISFIABLE
c process-time: 0.04 seconds
-----
c input_v4/commander/cnf_ALO_v4/15x15_144.cnf
'p cnf
cnf 4372
s SATISFIABLE
c process-time: 0.02 seconds
-----
c input_v4/commander/cnf_ALO_v4/15x15_145.cnf
'p cnf
cnf 3960
s SATISFIABLE
c process-time: 0.01 seconds
-----
c input_v4/commander/cnf_ALO_v4/15x20_307.cnf
'p cnf
cnf 4134
s SATISFIABLE
c process-time: 5s 4.92 seconds
-----
c input_v4/commander/cnf_ALO_v4/15x20_308.cnf
'p cnf
cnf 4428
s SATISFIABLE
c process-time: 0.18 seconds
-----
c input_v4/commander/cnf_ALO_v4/15x20_309.cnf
'p cnf
cnf 4134
s SATISFIABLE
c process-time: 3s 2.78 seconds
-----
c input_v4/commander/cnf_ALO_v4/15x20_310.cnf
'p cnf
cnf 5310
s SATISFIABLE
c process-time: 1s 0.68 seconds
-----
c input_v4/commander/cnf_ALO_v4/15x20_317.cnf
'p cnf
cnf 5310
s SATISFIABLE
c process-time: 0.04 seconds
-----
c input_v4/commander/cnf_ALO_v4/15x20_318.cnf
'p cnf
cnf 5310
s SATISFIABLE
c process-time: 0.34 seconds
-----
c input_v4/commander/cnf_ALO_v4/15x20_319.cnf
'p cnf
cnf 5016
s SATISFIABLE
c process-time: 4s 3.99 seconds
-----
c input_v4/commander/cnf_ALO_v4/15x20_320.cnf
'p cnf
cnf 5016
s SATISFIABLE
c process-time: 0.16 seconds
-----
c input_v4/commander/cnf_ALO_v4/17x17_100.cnf
'p cnf
cnf 4263
s SATISFIABLE
c process-time: 0.43 seconds
-----
c input_v4/commander/cnf_ALO_v4/17x17_104.cnf
'p cnf
cnf 6776
s SATISFIABLE
c process-time: 0.12 seconds
-----
c input_v4/commander/cnf_ALO_v4/17x17_109.cnf
'p cnf
cnf 6495
s SATISFIABLE
c process-time: 0.37 seconds
-----
c input_v4/commander/cnf_ALO_v4/17x17_112.cnf
'p cnf
cnf 7057
s SATISFIABLE
c process-time: 0.04 seconds
-----
c input_v4/commander/cnf_ALO_v4/17x17_116.cnf
'p cnf
cnf 6214
s SATISFIABLE
c process-time: 0.09 seconds
-----
c input_v4/commander/cnf_ALO_v4/17x17_120.cnf
'p cnf
cnf 4546
s SATISFIABLE
c process-time: 1s 0.80 seconds
-----
c input_v4/commander/cnf_ALO_v4/17x17_128.cnf
'p cnf
cnf 4546
s SATISFIABLE
c process-time: 0.34 seconds
-----
c input_v4/commander/cnf_ALO_v4/17x17_136.cnf
'p cnf
cnf 6495
s SATISFIABLE
c process-time: 0.23 seconds
-----
c input_v4/commander/cnf_ALO_v4/17x17_138.cnf
'p cnf
cnf 4263
s SATISFIABLE
c process-time: 1s 1.07 seconds
-----
c input_v4/commander/cnf_ALO_v4/17x17_165.cnf
'p cnf
cnf 4546
s SATISFIABLE
c process-time: 1s 0.72 seconds
-----
c input_v4/commander/cnf_ALO_v4/17x17_166.cnf
'p cnf
cnf 4263
s SATISFIABLE
c process-time: 3s 2.68 seconds
-----
c input_v4/commander/cnf_ALO_v4/17x17_167.cnf
'p cnf
cnf 8978
s SATISFIABLE
c process-time: 0.05 seconds
-----
c input_v4/commander/cnf_ALO_v4/17x17_168.cnf
'p cnf
cnf 9536
s SATISFIABLE
c process-time: 0.03 seconds
-----
c input_v4/commander/cnf_ALO_v4/17x17_175.cnf
'p cnf
cnf 3697
s SATISFIABLE
c process-time: 8s 8.21 seconds
-----
c input_v4/commander/cnf_ALO_v4/17x17_176.cnf
'p cnf
cnf 3414
s SATISFIABLE
c process-time: 1s 0.62 seconds
-----
c input_v4/commander/cnf_ALO_v4/17x17_177.cnf
'p cnf
cnf 7338
s SATISFIABLE
c process-time: 1s 0.98 seconds
-----
c input_v4/commander/cnf_ALO_v4/17x17_178.cnf
'p cnf
cnf 8420
s SATISFIABLE
c process-time: 1s 0.66 seconds
-----
c input_v4/commander/cnf_ALO_v4/17x17_187.cnf
'p cnf
cnf 3980
s SATISFIABLE
c process-time: 1s 1.14 seconds
-----
c input_v4/commander/cnf_ALO_v4/17x17_188.cnf
'p cnf
cnf 4263
s SATISFIABLE
c process-time: 0.23 seconds
-----
c input_v4/commander/cnf_ALO_v4/17x17_197.cnf
'p cnf
cnf 4263
s SATISFIABLE
c process-time: 1s 1.41 seconds
-----
c input_v4/commander/cnf_ALO_v4/17x17_198.cnf
'p cnf
cnf 3697
s SATISFIABLE
c process-time: 7s 6.95 seconds
-----
c input_v4/commander/cnf_ALO_v4/17x17_230.cnf
'p cnf
cnf 2573
s SATISFIABLE
c process-time: 5s 5.03 seconds
-----
c input_v4/commander/cnf_ALO_v4/17x17_240.cnf
'p cnf
cnf 3697
s SATISFIABLE
c process-time: 2s 1.82 seconds
-----
c input_v4/commander/cnf_ALO_v4/17x17_250.cnf
'p cnf
cnf 10652
s SATISFIABLE
c process-time: 0.06 seconds
-----
c input_v4/commander/cnf_ALO_v4/17x17_260.cnf
'p cnf
cnf 10652
s SATISFIABLE
c process-time: 0.06 seconds
-----
c input_v4/commander/cnf_ALO_v4/17x17_270.cnf
'p cnf
cnf 9536
s SATISFIABLE
c process-time: 0.26 seconds
-----
c input_v4/commander/cnf_ALO_v4/17x17_429.cnf
'p cnf
cnf 6495
s SATISFIABLE
c process-time: 0.01 seconds
-----
c input_v4/commander/cnf_ALO_v4/17x17_439.cnf
'p cnf
cnf 4263
s SATISFIABLE
c process-time: 1s 1.11 seconds
-----
c input_v4/commander/cnf_ALO_v4/17x17_449.cnf
'p cnf
cnf 5933
s SATISFIABLE
c process-time: 0.34 seconds
-----
c input_v4/commander/cnf_ALO_v4/20x20_430.cnf
'p cnf
cnf 12140
s SATISFIABLE
c process-time: 2s 2.10 seconds
-----
c input_v4/commander/cnf_ALO_v4/20x20_440.cnf
'p cnf
cnf 6322
s SATISFIABLE
c process-time: 12s 12.15 seconds
-----
c input_v4/commander/cnf_ALO_v4/20x20_450.cnf
'p cnf
cnf 7872
s SATISFIABLE
c process-time: 7s 6.70 seconds
-----
c input_v4/commander/cnf_ALO_v4/20x36_106.cnf
'p cnf
cnf 30516
s SATISFIABLE
c process-time: 8s 8.00 seconds
-----
c input_v4/commander/cnf_ALO_v4/20x36_114.cnf
'p cnf
cnf 30516
s SATISFIABLE
c process-time: 6s 5.80 seconds
-----
c input_v4/commander/cnf_ALO_v4/20x36_118.cnf
'p cnf
cnf 25610
s SATISFIABLE
c process-time: 3m 7s 186.95 seconds
-----
c input_v4/commander/cnf_ALO_v4/20x36_130.cnf
'p cnf
cnf 25610
s SATISFIABLE
c process-time: 10s 10.48 seconds
-----
c input_v4/commander/cnf_ALO_v4/20x36_140.cnf
'p cnf
cnf 25610
s SATISFIABLE
c process-time: 39s 38.65 seconds
-----
c input_v4/commander/cnf_ALO_v4/20x36_149.cnf
'p cnf
cnf 23480
s SATISFIABLE
c process-time: 38s 37.76 seconds
-----
c input_v4/commander/cnf_ALO_v4/20x36_150.cnf
'p cnf
cnf 18544
s SATISFIABLE
c process-time: 10m 3s 602.87 seconds
-----
c input_v4/commander/cnf_ALO_v4/20x36_159.cnf
'p cnf
cnf 25610
s SATISFIABLE
c process-time: 2m 40s 159.62 seconds
-----
c input_v4/commander/cnf_ALO_v4/20x36_160.cnf
'p cnf
cnf 18544
c process-time: 15m 899.94 seconds
UNKNOWN
-----
c input_v4/commander/cnf_ALO_v4/20x36_170.cnf
'p cnf
cnf 27030
s SATISFIABLE
c process-time: 1m 27s 87.04 seconds
-----
c input_v4/commander/cnf_ALO_v4/20x36_180.cnf
'p cnf
cnf 18544
s SATISFIABLE
c process-time: 2m 46s 166.20 seconds
-----
c input_v4/commander/cnf_ALO_v4/20x36_210.cnf
'p cnf
cnf 27030
s SATISFIABLE
c process-time: 1m 27s 87.25 seconds
-----
c input_v4/commander/cnf_ALO_v4/20x36_220.cnf
'p cnf
cnf 30516
s SATISFIABLE
c process-time: 25s 24.78 seconds
-----
c input_v4/commander/cnf_ALO_v4/25x25_60.cnf
'p cnf
cnf 18500
s SATISFIABLE
c process-time: 5m 26s 326.19 seconds
-----
c input_v4/commander/cnf_ALO_v4/25x25_66.cnf
'p cnf
cnf 21575
s SATISFIABLE
c process-time: 11s 10.61 seconds
-----
c input_v4/commander/cnf_ALO_v4/25x25_72.cnf
'p cnf
cnf 27657
s SATISFIABLE
c process-time: 4s 4.45 seconds
-----
c input_v4/commander/cnf_ALO_v4/25x25_78.cnf
'p cnf
cnf 22190
s SATISFIABLE
c process-time: 20s 20.48 seconds
-----
c input_v4/commander/cnf_ALO_v4/25x42_110.cnf
'p cnf
cnf 71582
s SATISFIABLE
c process-time: 9s 9.37 seconds
-----
c input_v4/commander/cnf_ALO_v4/35x48_190.cnf
'p cnf
cnf 76800
c process-time: 15m 899.89 seconds
UNKNOWN
-----
c input_v4/commander/cnf_ALO_v4/6x6_120.cnf
'p cnf
cnf 200
s SATISFIABLE
c process-time: 0.00 seconds
-----
c input_v4/commander/cnf_ALO_v4/6x6_121.cnf
'p cnf
cnf 264
s SATISFIABLE
c process-time: 0.00 seconds
-----
c input_v4/commander/cnf_ALO_v4/6x6_122.cnf
'p cnf
cnf 232
s SATISFIABLE
c process-time: 0.00 seconds
-----
c input_v4/commander/cnf_ALO_v4/6x6_123.cnf
'p cnf
cnf 232
s SATISFIABLE
c process-time: 0.00 seconds
-----
c input_v4/commander/cnf_ALO_v4/6x6_124.cnf
'p cnf
cnf 232
s SATISFIABLE
c process-time: 0.00 seconds
-----
c input_v4/commander/cnf_ALO_v4/6x6_125.cnf
'p cnf
cnf 232
s SATISFIABLE
c process-time: 0.00 seconds
-----
c input_v4/commander/cnf_ALO_v4/6x6_130.cnf
'p cnf
cnf 200
s SATISFIABLE
c process-time: 0.00 seconds
-----
c input_v4/commander/cnf_ALO_v4/6x6_131.cnf
'p cnf
cnf 264
s SATISFIABLE
c process-time: 0.00 seconds
-----
c input_v4/commander/cnf_ALO_v4/6x6_132.cnf
'p cnf
cnf 200
s SATISFIABLE
c process-time: 0.00 seconds
-----
c input_v4/commander/cnf_ALO_v4/6x6_133.cnf
'p cnf
cnf 264
s SATISFIABLE
c process-time: 0.00 seconds
-----
c input_v4/commander/cnf_ALO_v4/6x6_134.cnf
'p cnf
cnf 264
s SATISFIABLE
c process-time: 0.00 seconds
-----
c input_v4/commander/cnf_ALO_v4/6x6_135.cnf
'p cnf
cnf 200
s SATISFIABLE
c process-time: 0.00 seconds
-----
c input_v4/commander/cnf_ALO_v4/6x6_136.cnf
'p cnf
cnf 200
s SATISFIABLE
c process-time: 0.00 seconds
-----
c input_v4/commander/cnf_ALO_v4/6x6_137.cnf
'p cnf
cnf 232
s SATISFIABLE
c process-time: 0.00 seconds
-----
c input_v4/commander/cnf_ALO_v4/6x6_138.cnf
'p cnf
cnf 232
s SATISFIABLE
c process-time: 0.00 seconds
-----
c input_v4/commander/cnf_ALO_v4/6x6_139.cnf
'p cnf
cnf 232
s SATISFIABLE
c process-time: 0.00 seconds
-----
c input_v4/commander/cnf_ALO_v4/6x6_140.cnf
'p cnf
cnf 296
s SATISFIABLE
c process-time: 0.00 seconds
-----
c input_v4/commander/cnf_ALO_v4/6x6_141.cnf
'p cnf
cnf 200
s SATISFIABLE
c process-time: 0.00 seconds
-----
c input_v4/commander/cnf_ALO_v4/6x6_142.cnf
'p cnf
cnf 232
s SATISFIABLE
c process-time: 0.00 seconds
-----
c input_v4/commander/cnf_ALO_v4/6x6_143.cnf
'p cnf
cnf 264
s SATISFIABLE
c process-time: 0.00 seconds
-----
c input_v4/commander/cnf_ALO_v4/6x6_144.cnf
'p cnf
cnf 264
s SATISFIABLE
c process-time: 0.00 seconds
-----
c input_v4/commander/cnf_ALO_v4/6x6_145.cnf
'p cnf
cnf 232
s SATISFIABLE
c process-time: 0.00 seconds
-----
c input_v4/commander/cnf_ALO_v4/7x7_120.cnf
'p cnf
cnf 368
s SATISFIABLE
c process-time: 0.00 seconds
-----
c input_v4/commander/cnf_ALO_v4/7x7_121.cnf
'p cnf
cnf 413
s SATISFIABLE
c process-time: 0.00 seconds
-----
c input_v4/commander/cnf_ALO_v4/7x7_122.cnf
'p cnf
cnf 413
s SATISFIABLE
c process-time: 0.00 seconds
-----
c input_v4/commander/cnf_ALO_v4/7x7_123.cnf
'p cnf
cnf 323
s SATISFIABLE
c process-time: 0.00 seconds
-----
c input_v4/commander/cnf_ALO_v4/7x7_124.cnf
'p cnf
cnf 368
s SATISFIABLE
c process-time: 0.00 seconds
-----
c input_v4/commander/cnf_ALO_v4/7x7_130.cnf
'p cnf
cnf 278
s SATISFIABLE
c process-time: 0.00 seconds
-----
c input_v4/commander/cnf_ALO_v4/7x7_131.cnf
'p cnf
cnf 368
s SATISFIABLE
c process-time: 0.00 seconds
-----
c input_v4/commander/cnf_ALO_v4/7x7_132.cnf
'p cnf
cnf 458
s SATISFIABLE
c process-time: 0.00 seconds
-----
c input_v4/commander/cnf_ALO_v4/7x7_133.cnf
'p cnf
cnf 368
s SATISFIABLE
c process-time: 0.00 seconds
-----
c input_v4/commander/cnf_ALO_v4/7x7_134.cnf
'p cnf
cnf 323
s SATISFIABLE
c process-time: 0.00 seconds
-----
c input_v4/commander/cnf_ALO_v4/7x7_135.cnf
'p cnf
cnf 413
s SATISFIABLE
c process-time: 0.00 seconds
-----
c input_v4/commander/cnf_ALO_v4/7x7_136.cnf
'p cnf
cnf 323
s SATISFIABLE
c process-time: 0.00 seconds
-----
c input_v4/commander/cnf_ALO_v4/7x7_137.cnf
'p cnf
cnf 323
s SATISFIABLE
c process-time: 0.00 seconds
-----
c input_v4/commander/cnf_ALO_v4/7x7_138.cnf
'p cnf
cnf 368
s SATISFIABLE
c process-time: 0.00 seconds
-----
c input_v4/commander/cnf_ALO_v4/7x7_139.cnf
'p cnf
cnf 368
s SATISFIABLE
c process-time: 0.00 seconds
-----
c input_v4/commander/cnf_ALO_v4/7x7_140.cnf
'p cnf
cnf 368
s SATISFIABLE
c process-time: 0.00 seconds
-----
c input_v4/commander/cnf_ALO_v4/7x7_141.cnf
'p cnf
cnf 368
s SATISFIABLE
c process-time: 0.00 seconds
-----
c input_v4/commander/cnf_ALO_v4/7x7_142.cnf
'p cnf
cnf 368
s SATISFIABLE
c process-time: 0.00 seconds
-----
c input_v4/commander/cnf_ALO_v4/7x7_143.cnf
'p cnf
cnf 413
s SATISFIABLE
c process-time: 0.00 seconds
-----
c input_v4/commander/cnf_ALO_v4/7x7_144.cnf
'p cnf
cnf 368
s SATISFIABLE
c process-time: 0.00 seconds
-----
c input_v4/commander/cnf_ALO_v4/7x7_145.cnf
'p cnf
cnf 368
s SATISFIABLE
c process-time: 0.00 seconds
-----
c input_v4/commander/cnf_ALO_v4/8x8_120.cnf
'p cnf
cnf 608
s SATISFIABLE
c process-time: 0.00 seconds
-----
c input_v4/commander/cnf_ALO_v4/8x8_121.cnf
'p cnf
cnf 608
s SATISFIABLE
c process-time: 0.00 seconds
-----
c input_v4/commander/cnf_ALO_v4/8x8_122.cnf
'p cnf
cnf 608
s SATISFIABLE
c process-time: 0.00 seconds
-----
c input_v4/commander/cnf_ALO_v4/8x8_123.cnf
'p cnf
cnf 608
s SATISFIABLE
c process-time: 0.00 seconds
-----
c input_v4/commander/cnf_ALO_v4/8x8_124.cnf
'p cnf
cnf 488
s SATISFIABLE
c process-time: 0.00 seconds
-----
c input_v4/commander/cnf_ALO_v4/8x8_130.cnf
'p cnf
cnf 488
s SATISFIABLE
c process-time: 0.00 seconds
-----
c input_v4/commander/cnf_ALO_v4/8x8_131.cnf
'p cnf
cnf 608
s SATISFIABLE
c process-time: 0.00 seconds
-----
c input_v4/commander/cnf_ALO_v4/8x8_132.cnf
'p cnf
cnf 548
s SATISFIABLE
c process-time: 0.00 seconds
-----
c input_v4/commander/cnf_ALO_v4/8x8_133.cnf
'p cnf
cnf 488
s SATISFIABLE
c process-time: 0.00 seconds
-----
c input_v4/commander/cnf_ALO_v4/8x8_134.cnf
'p cnf
cnf 608
s SATISFIABLE
c process-time: 0.00 seconds
-----
c input_v4/commander/cnf_ALO_v4/8x8_135.cnf
'p cnf
cnf 488
s SATISFIABLE
c process-time: 0.00 seconds
-----
c input_v4/commander/cnf_ALO_v4/8x8_136.cnf
'p cnf
cnf 548
s SATISFIABLE
c process-time: 0.00 seconds
-----
c input_v4/commander/cnf_ALO_v4/8x8_137.cnf
'p cnf
cnf 608
s SATISFIABLE
c process-time: 0.00 seconds
-----
c input_v4/commander/cnf_ALO_v4/8x8_138.cnf
'p cnf
cnf 428
s SATISFIABLE
c process-time: 0.00 seconds
-----
c input_v4/commander/cnf_ALO_v4/8x8_139.cnf
'p cnf
cnf 608
s SATISFIABLE
c process-time: 0.00 seconds
-----
c input_v4/commander/cnf_ALO_v4/8x8_140.cnf
'p cnf
cnf 548
s SATISFIABLE
c process-time: 0.00 seconds
-----
c input_v4/commander/cnf_ALO_v4/8x8_141.cnf
'p cnf
cnf 608
s SATISFIABLE
c process-time: 0.00 seconds
-----
c input_v4/commander/cnf_ALO_v4/8x8_142.cnf
'p cnf
cnf 548
s SATISFIABLE
c process-time: 0.00 seconds
-----
c input_v4/commander/cnf_ALO_v4/8x8_143.cnf
'p cnf
cnf 714
s SATISFIABLE
c process-time: 0.00 seconds
-----
c input_v4/commander/cnf_ALO_v4/8x8_144.cnf
'p cnf
cnf 548
s SATISFIABLE
c process-time: 0.00 seconds
-----
c input_v4/commander/cnf_ALO_v4/8x8_145.cnf
'p cnf
cnf 608
s SATISFIABLE
c process-time: 0.00 seconds
-----
c input_v4/commander/cnf_ALO_v4/9x9_120.cnf
'p cnf
cnf 701
s SATISFIABLE
c process-time: 0.00 seconds
-----
c input_v4/commander/cnf_ALO_v4/9x9_121.cnf
'p cnf
cnf 918
s SATISFIABLE
c process-time: 0.00 seconds
-----
c input_v4/commander/cnf_ALO_v4/9x9_122.cnf
'p cnf
cnf 918
s SATISFIABLE
c process-time: 0.00 seconds
-----
c input_v4/commander/cnf_ALO_v4/9x9_123.cnf
'p cnf
cnf 778
s SATISFIABLE
c process-time: 0.00 seconds
-----
c input_v4/commander/cnf_ALO_v4/9x9_124.cnf
'p cnf
cnf 993
s SATISFIABLE
c process-time: 0.00 seconds
-----
c input_v4/commander/cnf_ALO_v4/9x9_130.cnf
'p cnf
cnf 918
s SATISFIABLE
c process-time: 0.00 seconds
-----
c input_v4/commander/cnf_ALO_v4/9x9_131.cnf
'p cnf
cnf 993
s SATISFIABLE
c process-time: 0.00 seconds
-----
c input_v4/commander/cnf_ALO_v4/9x9_132.cnf
'p cnf
cnf 993
s SATISFIABLE
c process-time: 0.00 seconds
-----
c input_v4/commander/cnf_ALO_v4/9x9_133.cnf
'p cnf
cnf 918
s SATISFIABLE
c process-time: 0.00 seconds
-----
c input_v4/commander/cnf_ALO_v4/9x9_134.cnf
'p cnf
cnf 701
s SATISFIABLE
c process-time: 0.00 seconds
-----
c input_v4/commander/cnf_ALO_v4/9x9_135.cnf
'p cnf
cnf 778
s SATISFIABLE
c process-time: 0.00 seconds
-----
c input_v4/commander/cnf_ALO_v4/9x9_136.cnf
'p cnf
cnf 778
s SATISFIABLE
c process-time: 0.00 seconds
-----
c input_v4/commander/cnf_ALO_v4/9x9_137.cnf
'p cnf
cnf 701
s SATISFIABLE
c process-time: 0.00 seconds
-----
c input_v4/commander/cnf_ALO_v4/9x9_138.cnf
'p cnf
cnf 778
s SATISFIABLE
c process-time: 0.00 seconds
-----
c input_v4/commander/cnf_ALO_v4/9x9_139.cnf
'p cnf
cnf 918
s SATISFIABLE
c process-time: 0.00 seconds
-----
c input_v4/commander/cnf_ALO_v4/9x9_140.cnf
'p cnf
cnf 918
s SATISFIABLE
c process-time: 0.00 seconds
-----
c input_v4/commander/cnf_ALO_v4/9x9_141.cnf
'p cnf
cnf 701
s SATISFIABLE
c process-time: 0.00 seconds
-----
c input_v4/commander/cnf_ALO_v4/9x9_142.cnf
'p cnf
cnf 993
s SATISFIABLE
c process-time: 0.00 seconds
-----
c input_v4/commander/cnf_ALO_v4/9x9_143.cnf
'p cnf
cnf 778
s SATISFIABLE
c process-time: 0.00 seconds
-----
c input_v4/commander/cnf_ALO_v4/9x9_144.cnf
'p cnf
cnf 918
s SATISFIABLE
c process-time: 0.00 seconds
-----
c input_v4/commander/cnf_ALO_v4/9x9_145.cnf
'p cnf
cnf 778
s SATISFIABLE
c process-time: 0.00 seconds
-----
UNKNOWN
-----

